\ Model Cl_35_Ins_5.lp
\ LP format - for model browsing. Use MPS format to capture full model detail.
Maximize
 
Subject To
 obj1: y[0] = 0
 obj2: y[1] = 0
 obj1_Exp: - y[0] + 95 x[0] + 88 x[1] + 87 x[2] + 86 x[3] + 85 x[4]
   + 78 x[5] + 74 x[6] + 74 x[7] + 71 x[8] + 71 x[9] + 67 x[10] + 66 x[11]
   + 62 x[12] + 62 x[13] + 60 x[14] + 58 x[15] + 56 x[16] + 54 x[17]
   + 54 x[18] + 53 x[19] + 52 x[20] + 50 x[21] + 48 x[22] + 48 x[23]
   + 43 x[24] + 40 x[25] + 39 x[26] + 34 x[27] + 30 x[28] + 24 x[29]
   + 23 x[30] + 20 x[31] + 19 x[32] + 17 x[33] + 3 x[34] = 0
 obj2_Exp: - y[1] + 45 x[0] + 40 x[1] + 33 x[2] + 96 x[3] + 68 x[4]
   + 29 x[5] + x[6] + 95 x[7] + 93 x[8] + 31 x[9] + 42 x[10] + 10 x[11]
   + 35 x[12] + 40 x[13] + 34 x[14] + 68 x[15] + 18 x[16] + 36 x[17]
   + 49 x[18] + 57 x[19] + 41 x[20] + 55 x[21] + 82 x[22] + x[23]
   + 84 x[24] + 37 x[25] + 42 x[26] + 77 x[27] + 23 x[28] + 15 x[29]
   + 82 x[30] + 25 x[31] + 53 x[32] + 29 x[33] + 81 x[34] = 0
 Budget: 105 x[0] + 98 x[1] + 97 x[2] + 96 x[3] + 95 x[4] + 88 x[5]
   + 84 x[6] + 84 x[7] + 81 x[8] + 81 x[9] + 77 x[10] + 76 x[11] + 72 x[12]
   + 72 x[13] + 70 x[14] + 68 x[15] + 66 x[16] + 64 x[17] + 64 x[18]
   + 63 x[19] + 62 x[20] + 60 x[21] + 58 x[22] + 58 x[23] + 53 x[24]
   + 50 x[25] + 49 x[26] + 44 x[27] + 40 x[28] + 34 x[29] + 33 x[30]
   + 30 x[31] + 29 x[32] + 27 x[33] + 13 x[34] <= 1000
Bounds
Binaries
 x[0] x[1] x[2] x[3] x[4] x[5] x[6] x[7] x[8] x[9] x[10] x[11] x[12] x[13]
 x[14] x[15] x[16] x[17] x[18] x[19] x[20] x[21] x[22] x[23] x[24] x[25]
 x[26] x[27] x[28] x[29] x[30] x[31] x[32] x[33] x[34]
Generals
 y[0] y[1]
End
